g3 2 1 0	# problem tmp
 13 12 1 0 4	# vars, constraints, objectives, ranges, eqns
 4 1 8 0	# nonlinear constrs, objs; ccons: lin, nonlin
 0 0	# network constraints: nonlinear, linear
 5 5 5	# nonlinear vars in constraints, objectives, both
 0 0 0 1	# linear network variables; functions; arith, flags
 0 0 0 0 0	# discrete variables: binary, integer, nonlinear (b,c,o)
 36 5	# nonzeros in Jacobian, gradients
 0 0	# max name lengths: constraints, variables
 1 0 0 0 0	# common exprs: b,c,o,c1,o1
V13 5 0
0 1
1 1
2 1
3 1
4 1
n0
C0
o0
o2
n700.4248435644998
o5
v13
n-0.7692307692307692
o2
v1
o2
n-538.7883412034614
o5
v13
n-1.7692307692307692
C1
o0
o2
n700.4248435644998
o5
v13
n-0.7692307692307692
o2
v2
o2
n-538.7883412034614
o5
v13
n-1.7692307692307692
C2
o0
o2
n700.4248435644998
o5
v13
n-0.7692307692307692
o2
v3
o2
n-538.7883412034614
o5
v13
n-1.7692307692307692
C3
o0
o2
n700.4248435644998
o5
v13
n-0.7692307692307692
o2
v4
o2
n-538.7883412034614
o5
v13
n-1.7692307692307692
C4
n0
C5
n30
C6
n0
C7
n30
C8
n0
C9
n30
C10
n0
C11
n30
O0 0
o1
o2
n0.14265387120129058
o5
v0
n1.8333333333333335
o2
v0
o2
n700.4248435644998
o5
v13
n-0.7692307692307692
x1
0 75
r
4 8
4 6
4 4
4 2
5 1 6
5 1 7
5 1 8
5 1 9
5 1 10
5 1 11
5 1 12
5 1 13
b
0 0 30
3
3
3
3
2 0
2 0
2 0
2 0
2 0
2 0
2 0
2 0
k12
4
10
16
22
28
29
30
31
32
33
34
35
J0 7
0 0
1 -0.23151158235413097
2 0
3 0
4 0
5 1
6 -1
J1 7
0 0
1 0
2 -0.2
3 0
4 0
7 1
8 -1
J2 7
0 0
1 0
2 0
3 -0.16725020619007466
4 0
9 1
10 -1
J3 7
0 0
1 0
2 0
3 0
4 -0.1337480609952844
11 1
12 -1
J4 1
1 1
J5 1
1 -1
J6 1
2 1
J7 1
2 -1
J8 1
3 1
J9 1
3 -1
J10 1
4 1
J11 1
4 -1
G0 5
0 10
1 0
2 0
3 0
4 0
